(set-option :produce-models true)
(set-logic QF_UF)
(declare-fun p8() Bool)
(declare-fun p22() Bool)
(declare-fun p5() Bool)
(declare-fun p0() Bool)
(declare-fun p20() Bool)
(declare-fun p13() Bool)
(declare-fun p18() Bool)
(declare-fun p15() Bool)
(declare-fun p9() Bool)
(declare-fun p11() Bool)
(declare-fun p12() Bool)
(declare-fun p2() Bool)
(declare-fun p6() Bool)
(declare-fun p19() Bool)
(declare-fun p17() Bool)
(declare-fun p23() Bool)
(declare-fun p1() Bool)
(declare-fun p10() Bool)
(declare-fun p14() Bool)
(declare-fun p4() Bool)
(declare-fun p3() Bool)
(declare-fun p7() Bool)
(declare-fun p24() Bool)
(declare-fun p16() Bool)
(declare-fun p21() Bool)
(assert
(and (or (not p8) (not p22) p5) (or p0 (not p20) p8) (or p13 (not p8) (not p18)) (or (not p18) (not p15) (not p5)) (or (not p9) p11 (not p12)) (or (not p22) (not p2) p6) (or p19 p19 p17) (or (not p20) p11 p23) (or (not p1) p1 (not p1)) (or p10 (not p22) p23) (or (not p0) (not p8) (not p14)) (or (not p8) (not p13) p13) (or p4 (not p19) (not p8)) (or (not p19) p23 (not p4)) (or (not p9) p1 p12) (or p17 p15 p23) (or p8 (not p12) (not p23)) (or p3 (not p14) p3) (or p22 p3 p7) (or (not p11) (not p22) p9) (or p17 (not p19) p14) (or (not p20) p20 (not p1)) (or (not p24) p5 p5) (or (not p0) (not p16) (not p6)) (or (not p4) p7 p4) (or p20 p19 (not p14)) (or (not p21) p5 (not p19)) (or (not p6) (not p20) (not p15)) (or (not p23) p12 p3) (or p19 (not p8) p13) (or (not p22) (not p13) p3) (or p14 (not p20) (not p6)) (or p23 (not p16) p18) (or p19 p23 p16) (or p23 (not p7) (not p24)) (or (not p0) p16 p21) (or p20 p22 p18) (or p19 (not p9) (not p13)) (or p7 (not p16) p8) (or p14 p20 p4) (or (not p7) (not p3) (not p15)) (or (not p3) p21 p16) (or (not p7) p1 p19) (or (not p8) p6 (not p19)) (or (not p13) (not p6) p18) (or p0 (not p12) (not p13)) (or p11 p1 (not p10)) (or (not p24) (not p7) (not p2)) (or p8 p23 p8) (or (not p24) p1 (not p12)) (or p6 p7 p23) (or p1 (not p0) p0) (or p1 (not p2) p22) (or p1 p6 p18) (or p15 p1 p20) (or p16 (not p1) p19) (or p15 p0 p3) (or (not p7) p23 (not p19)) (or (not p7) p7 p16) (or p23 (not p7) p10) (or (not p14) p3 (not p23)) (or (not p18) p12 p15) (or p10 p12 (not p3)) (or (not p12) p7 p17) (or (not p20) p1 p14) (or p9 (not p17) (not p3)) (or (not p21) p12 (not p2)) (or p1 p14 p4) (or p21 p8 p24) (or p10 (not p7) p8) (or (not p24) (not p16) p16) (or (not p10) p9 p13) (or p20 (not p24) p21) (or p1 p1 p23) (or p15 p21 p15) (or (not p23) p14 (not p23)) (or p16 p13 p3) (or p24 p0 p6) (or (not p9) (not p0) p15) (or p17 p5 p3) (or p20 (not p1) p24) (or p4 p22 p10) (or p16 p3 p23) (or (not p3) (not p11) (not p10)) (or p17 (not p16) (not p13)) (or (not p9) p5 p1) (or p4 p10 (not p7)) (or p20 (not p18) p19) (or (not p3) p0 p21) (or (not p19) p23 (not p1)) (or (not p19) p13 (not p15)) (or (not p14) p23 (not p19)) (or (not p1) p9 p14) (or (not p8) p5 (not p3)) (or p17 p22 p22) (or p6 (not p4) p4) (or (not p8) (not p0) p1) (or p18 p13 (not p2)) (or p5 (not p8) p3) (or (not p16) p2 (not p11)) (or p9 (not p21) (not p18)) (or p15 p15 (not p10)) (or p0 p3 p15) (or p4 (not p10) (not p7)) (or p24 (not p9) p9) (or (not p16) p18 p4) (or (not p2) (not p0) (not p21)))
)
(check-sat)
(get-model)
